NAME : mtspf.pid5149.gtsp.177167584.tour
COMMENT : Length = 177167584
COMMENT : Found by LKH [Keld Helsgaun] Thu Jan  9 11:47:44 2025
TYPE : TOUR
DIMENSION : 123
TOUR_SECTION
1
5
6
7
4
115
112
113
114
75
72
73
74
62
63
60
61
14
15
12
13
81
82
83
80
91
88
89
90
34
35
32
33
85
86
87
84
18
19
16
17
45
46
47
44
116
117
118
119
121
122
123
120
20
21
22
23
76
77
78
79
2
42
43
40
41
53
54
55
52
3
67
64
65
66
49
50
51
48
56
57
58
59
8
9
10
11
103
100
101
102
96
97
98
99
39
36
37
38
108
109
110
111
93
94
95
92
29
30
31
28
68
69
70
71
105
106
107
104
27
24
25
26
-1
EOF
